7 









































































20 45 
25 68 
52 47 
1 0 
16 13 
34 51 
11 60 
6 59 
61 33 
53 35 
64 58 
3 17 
2 31 
15 30 
44 40 
46 4 
43 19 
9 69 
62 67 
18 24 
41 23 
54 76 
57 32 
63 21 
65 49 
66 72 
48 8 

42 12 
56 55 
39 27 

38 10 
26 36 
50 5 
70 14 
75 74 
37 
29 28 
71 22 
73 
